(set-logic QF_SLIA)
(set-option :produce-models true)
(declare-const X String)
; ^[3|4|5|6]([0-9]{15}$|[0-9]{12}$|[0-9]{13}$|[0-9]{14}$)
(assert (not (str.in_re X (re.++ (re.union (str.to_re "3") (str.to_re "|") (str.to_re "4") (str.to_re "5") (str.to_re "6")) (re.union ((_ re.loop 15 15) (re.range "0" "9")) ((_ re.loop 12 12) (re.range "0" "9")) ((_ re.loop 13 13) (re.range "0" "9")) ((_ re.loop 14 14) (re.range "0" "9"))) (str.to_re "\u{0a}")))))
; /^[oz]/Ri
(assert (not (str.in_re X (re.++ (str.to_re "/") (re.union (str.to_re "o") (str.to_re "z")) (str.to_re "/Ri\u{0a}")))))
; /filename=[^\n]*\u{2e}xls/i
(assert (not (str.in_re X (re.++ (str.to_re "/filename=") (re.* (re.comp (str.to_re "\u{0a}"))) (str.to_re ".xls/i\u{0a}")))))
; ^\d{4,4}[A-Z0-9]$
(assert (str.in_re X (re.++ ((_ re.loop 4 4) (re.range "0" "9")) (re.union (re.range "A" "Z") (re.range "0" "9")) (str.to_re "\u{0a}"))))
; (^\b\d+-\d+$\b)|(^\b\d+$\b)
(assert (not (str.in_re X (re.union (re.++ (re.+ (re.range "0" "9")) (str.to_re "-") (re.+ (re.range "0" "9"))) (re.++ (re.+ (re.range "0" "9")) (str.to_re "\u{0a}"))))))
(assert (> (str.len X) 10))
(check-sat)
